(set-logic QF_SLIA)
(set-option :produce-models true)
(declare-const X String)
; ^[9]9\d{10}|^[5]\d{10}
(assert (str.in_re X (re.union (re.++ (str.to_re "99") ((_ re.loop 10 10) (re.range "0" "9"))) (re.++ (str.to_re "5") ((_ re.loop 10 10) (re.range "0" "9")) (str.to_re "\u{0a}")))))
; to=.*JMail\d+HXDownloadasdbiz\x2EbizUser-Agent\x3Awww\x2Eezula\x2Ecom
(assert (not (str.in_re X (re.++ (str.to_re "to=") (re.* re.allchar) (str.to_re "JMail") (re.+ (re.range "0" "9")) (str.to_re "HXDownloadasdbiz.bizUser-Agent:www.ezula.com\u{0a}")))))
; User-Agent\x3AUser-Agent\x3AHost\u{3a}
(assert (str.in_re X (str.to_re "User-Agent:User-Agent:Host:\u{0a}")))
; ^[+]?((\d*[1-9]+\d*\.?\d*)|(\d*\.\d*[1-9]+\d*))$
(assert (not (str.in_re X (re.++ (re.opt (str.to_re "+")) (re.union (re.++ (re.* (re.range "0" "9")) (re.+ (re.range "1" "9")) (re.* (re.range "0" "9")) (re.opt (str.to_re ".")) (re.* (re.range "0" "9"))) (re.++ (re.* (re.range "0" "9")) (str.to_re ".") (re.* (re.range "0" "9")) (re.+ (re.range "1" "9")) (re.* (re.range "0" "9")))) (str.to_re "\u{0a}")))))
(assert (> (str.len X) 10))
(check-sat)
